378 728
46 1 -4
166 1 4
175 1 4
176 1 -4
26 2 4
179 2 -4
307 2 4
338 2 -4
4 3 -4
258 3 4
310 3 4
343 3 -4
10 4 4
232 4 4
233 4 -4
34 5 -4
186 5 -4
202 5 4
203 5 4
135 6 -4
179 6 -4
309 6 4
342 6 4
41 7 -4
172 7 -4
187 7 4
220 7 4
9 8 4
69 8 4
266 8 -4
296 8 -4
137 9 -4
139 9 -4
295 9 4
258 10 4
374 10 -4
377 10 -4
12 11 -4
142 11 -4
173 11 4
349 11 4
27 12 -4
87 12 4
88 12 4
14 13 4
242 13 -4
270 13 -4
356 13 4
136 14 -4
137 14 -4
324 14 4
16 15 4
191 15 -4
209 15 4
272 15 -4
52 16 -4
62 16 4
356 16 -4
81 17 4
100 17 4
340 17 -4
372 17 -4
19 18 4
135 18 -4
216 18 4
313 18 -4
340 19 4
341 19 -4
344 19 -4
21 20 4
138 20 -4
189 20 -4
353 20 4
51 21 -4
79 21 -4
321 21 4
23 22 -4
53 22 4
244 22 -4
353 22 4
68 23 4
143 23 -4
323 23 4
174 24 -4
225 24 4
245 24 -4
325 24 4
209 25 -4
225 25 4
249 25 4
274 25 -4
92 26 4
230 26 -4
310 26 -4
28 27 4
288 27 4
289 27 -4
66 28 -4
87 28 -4
203 28 4
59 29 -4
74 29 -4
136 29 4
352 29 4
192 30 -4
224 30 -4
247 30 4
358 30 4
63 31 4
191 31 -4
247 31 4
301 31 -4
33 32 -4
35 32 4
315 32 4
318 32 -4
78 33 -4
94 33 4
262 33 4
35 34 4
67 34 4
290 34 -4
73 35 -4
262 35 -4
67 36 -4
68 36 4
137 36 4
142 36 -4
75 37 4
164 37 4
245 37 -4
324 37 -4
54 38 4
174 38 -4
273 38 4
332 38 -4
40 39 -4
42 39 4
346 39 4
349 39 -4
72 40 -4
239 40 4
314 40 4
42 41 4
60 41 4
263 41 -4
239 42 -4
240 42 -4
59 43 4
60 43 -4
139 43 4
143 43 -4
272 44 -4
295 44 -4
323 44 4
358 44 4
192 45 -4
298 45 4
300 45 4
364 45 -4
55 46 4
251 46 -4
300 46 4
48 47 4
231 47 -4
341 47 4
374 47 -4
120 48 4
213 48 -4
279 48 -4
72 49 4
172 49 -4
200 49 -4
220 49 4
65 50 -4
108 50 4
220 50 -4
345 50 4
138 51 4
240 51 4
350 51 -4
269 52 -4
294 52 4
325 52 4
84 53 4
206 53 -4
325 53 -4
98 54 -4
141 54 -4
302 54 4
141 55 -4
167 55 4
177 55 -4
116 56 4
195 56 -4
253 56 -4
309 56 4
65 57 4
185 57 -4
186 57 -4
202 57 4
111 58 4
113 58 4
185 58 -4
202 58 -4
73 59 4
319 59 -4
221 60 4
264 60 -4
62 61 4
165 61 -4
176 61 -4
362 61 4
103 62 -4
130 62 -4
144 63 -4
226 63 -4
275 63 4
110 64 4
178 64 -4
229 64 -4
281 64 4
112 66 -4
131 66 4
142 66 4
88 67 4
241 67 -4
115 68 -4
354 68 -4
268 69 -4
272 69 -4
326 69 4
98 70 4
145 70 4
166 70 -4
330 70 -4
106 71 4
168 71 -4
213 71 -4
255 71 4
107 73 -4
129 73 4
96 74 4
203 74 4
222 74 -4
205 75 -4
354 75 -4
357 75 4
148 76 4
159 76 -4
226 76 4
299 76 -4
161 77 -4
195 77 -4
232 77 4
373 77 4
346 78 4
102 79 4
187 79 4
204 79 -4
85 80 -4
151 80 4
155 80 -4
248 80 4
161 81 4
178 81 -4
179 81 -4
288 82 -4
315 82 4
124 83 -4
315 83 4
205 84 4
270 84 -4
293 84 -4
130 85 4
273 85 4
274 85 -4
128 86 -4
288 86 4
288 87 4
289 87 -4
317 88 -4
320 88 -4
223 89 4
267 89 -4
296 89 -4
356 89 4
192 90 -4
225 90 4
246 90 4
359 90 -4
92 91 -4
93 91 4
169 91 -4
180 91 4
116 92 4
235 92 -4
162 93 4
170 93 -4
181 93 -4
289 94 -4
96 95 4
221 95 -4
262 95 4
316 95 -4
112 96 -4
351 96 -4
109 97 4
174 97 -4
209 97 4
326 97 -4
209 98 4
210 98 -4
106 99 4
181 99 4
196 99 -4
373 99 -4
120 100 4
181 100 -4
257 100 -4
102 101 4
239 101 4
240 101 -4
347 101 -4
107 102 -4
173 102 -4
126 103 -4
165 103 4
296 103 4
191 104 4
192 104 -4
300 104 -4
363 104 4
363 105 4
364 105 -4
366 105 4
367 105 -4
339 106 -4
341 106 -4
108 107 4
172 107 4
219 108 -4
348 108 -4
270 109 4
271 109 -4
297 109 -4
180 110 4
308 110 -4
311 110 -4
219 111 -4
113 112 4
186 112 4
201 113 -4
317 113 -4
115 114 4
188 114 4
189 114 -4
205 114 -4
129 115 -4
351 115 4
280 116 -4
282 116 -4
118 117 4
204 117 4
205 117 -4
223 117 -4
131 118 -4
320 118 4
352 118 -4
122 119 4
208 119 4
357 119 -4
360 119 -4
254 120 -4
256 120 -4
222 121 4
223 121 -4
243 121 -4
291 121 4
323 122 4
324 122 -4
326 122 -4
226 123 4
360 123 4
361 123 -4
362 123 -4
239 124 4
345 124 4
347 124 -4
241 125 4
243 125 -4
265 125 4
267 125 -4
246 126 4
294 126 4
295 126 -4
248 127 4
327 127 4
328 127 -4
330 127 -4
262 128 4
314 128 4
316 128 -4
265 129 4
350 129 -4
297 130 4
299 130 -4
291 131 4
319 131 -4
133 132 4
313 132 -4
134 133 -4
376 133 4
377 133 -4
378 134 4
340 135 4
343 135 -4
264 136 -4
353 136 -4
241 137 -4
140 138 -4
142 138 -4
222 139 -4
266 139 -4
204 140 -4
242 140 -4
266 140 -4
193 141 -4
331 141 4
188 143 -4
242 143 -4
193 144 -4
211 144 -4
363 144 4
211 145 -4
227 145 -4
249 145 -4
149 146 -4
378 146 -4
190 147 4
224 147 -4
355 147 -4
358 147 -4
227 148 -4
250 148 -4
274 148 -4
150 149 -4
197 149 4
215 149 -4
153 150 -4
250 151 -4
276 151 -4
301 151 -4
161 152 -4
168 152 -4
227 152 4
276 152 -4
154 153 -4
182 153 4
236 153 -4
157 154 -4
276 155 -4
303 155 -4
332 155 -4
168 156 -4
178 156 -4
211 156 4
303 156 -4
158 157 -4
169 157 4
259 157 -4
162 158 -4
303 159 -4
334 159 -4
364 159 -4
178 160 -4
193 160 4
195 160 -4
334 160 -4
368 161 -4
163 162 -4
284 162 -4
170 163 -4
165 164 -4
207 164 -4
271 164 -4
191 165 -4
334 166 -4
366 166 -4
195 167 -4
213 167 -4
366 167 -4
230 168 -4
183 169 -4
196 169 -4
171 170 -4
376 170 -4
183 171 -4
219 172 -4
188 173 -4
264 173 -4
176 174 -4
210 175 -4
329 175 4
331 175 4
331 176 -4
213 177 -4
229 177 -4
367 177 4
180 179 4
214 180 -4
182 181 -4
198 182 -4
214 182 -4
184 183 -4
344 183 -4
198 184 -4
201 186 -4
318 187 4
351 187 -4
263 188 -4
190 189 -4
268 189 -4
244 190 -4
322 190 -4
194 193 -4
229 194 -4
253 194 -4
335 194 4
197 196 -4
234 196 -4
216 197 -4
235 197 -4
199 198 -4
377 198 -4
216 199 -4
201 200 -4
287 201 -4
317 202 4
320 203 -4
290 204 -4
207 206 -4
208 206 4
244 206 -4
210 207 -4
273 207 4
210 208 -4
247 208 4
212 211 -4
253 212 -4
279 212 -4
304 212 4
215 214 -4
256 214 -4
237 215 -4
257 215 -4
217 216 -4
237 217 -4
219 218 -4
346 218 -4
348 220 4
290 221 -4
348 221 -4
320 222 -4
323 223 -4
270 224 -4
360 224 4
226 225 4
228 227 -4
277 228 4
279 228 -4
306 228 -4
231 229 -4
233 230 -4
371 230 -4
233 231 -4
306 231 -4
234 232 4
339 232 -4
234 233 -4
283 234 -4
236 235 -4
282 235 -4
260 236 -4
283 236 -4
238 237 -4
258 237 4
260 238 -4
263 240 -4
351 241 -4
294 242 4
268 243 4
294 243 -4
246 244 4
296 245 -4
327 245 4
327 246 -4
248 247 4
249 248 -4
275 249 -4
252 250 -4
368 250 -4
252 251 -4
275 251 -4
368 251 -4
306 252 -4
337 252 -4
254 253 -4
309 254 -4
337 254 -4
256 255 4
308 255 -4
340 255 4
312 256 -4
259 257 -4
311 257 -4
285 258 -4
285 259 -4
312 259 -4
261 260 -4
343 260 4
285 261 -4
265 263 4
292 264 4
292 265 -4
269 266 4
269 267 -4
292 267 -4
271 268 -4
271 269 -4
297 272 4
360 273 4
302 274 -4
277 275 -4
278 276 -4
278 277 -4
302 277 -4
337 278 -4
370 278 -4
280 279 -4
281 280 -4
370 280 -4
282 281 4
310 281 4
342 282 -4
284 283 -4
341 283 -4
313 284 -4
342 284 -4
286 285 -4
313 286 -4
289 287 -4
291 290 4
321 291 -4
293 292 -4
295 293 -4
321 293 -4
329 297 4
299 298 4
327 298 4
361 298 -4
301 299 -4
333 300 4
333 301 -4
304 302 -4
305 303 -4
305 304 -4
333 304 -4
307 305 -4
370 305 -4
308 306 -4
308 307 -4
336 307 -4
311 309 4
375 310 4
375 311 -4
374 312 -4
376 312 -4
316 315 4
318 316 -4
319 317 -4
319 318 -4
322 321 -4
324 322 -4
352 322 -4
328 325 4
328 326 -4
329 328 -4
330 329 4
332 330 -4
365 331 4
365 332 -4
335 333 -4
336 334 -4
336 335 -4
365 335 -4
338 336 -4
339 337 -4
339 338 -4
369 338 -4
344 342 -4
378 343 -4
378 344 -4
347 346 4
349 347 -4
350 348 -4
350 349 -4
354 352 -4
355 353 4
355 354 -4
357 355 -4
359 356 4
359 357 -4
361 358 4
361 359 -4
363 362 -4
364 362 -4
367 365 -4
369 366 -4
369 367 -4
371 368 -4
371 369 -4
372 370 -4
372 371 -4
373 372 -4
374 373 -4
376 375 -4
377 375 -4
244
135 2
136 2
137 2
138 2
139 2
140 4
141 2
142 2
143 4
144 2
145 2
146 2
147 2
148 2
149 2
150 2
151 2
152 2
153 2
154 2
155 4
156 2
157 2
158 2
159 4
160 2
161 2
162 2
163 2
164 2
165 2
166 2
167 2
168 4
169 2
170 4
171 2
172 2
173 2
174 4
175 -2
176 4
177 2
178 4
179 2
180 -2
181 2
182 2
183 4
184 2
185 2
186 2
187 -2
188 2
189 4
190 2
191 2
192 4
193 2
194 2
195 4
196 4
197 2
198 4
199 2
200 2
201 4
202 -2
203 -2
204 2
205 2
206 2
207 2
208 -2
209 -2
210 4
211 2
212 2
213 4
214 4
215 4
216 2
217 2
218 2
219 4
220 -2
221 2
222 2
223 2
224 2
225 -4
226 -2
227 2
228 2
229 4
230 4
231 4
232 -2
233 4
234 2
235 4
236 4
237 2
238 2
239 -2
240 2
241 2
242 2
243 2
244 2
245 2
246 -2
247 -4
248 -2
249 2
250 4
251 4
252 4
253 4
254 4
255 -2
256 2
257 4
258 -2
259 4
260 2
261 2
262 -2
263 2
264 2
265 -2
266 2
267 4
268 2
269 2
270 2
271 4
272 2
273 -4
274 4
275 2
276 4
277 2
278 4
279 4
280 4
281 -2
282 2
283 4
284 4
285 4
286 2
287 2
288 -2
289 4
290 2
291 -2
292 2
293 4
294 -2
295 2
296 2
297 -2
298 -2
299 2
300 -2
301 4
302 2
303 4
304 2
305 4
306 4
307 2
308 4
309 -2
310 -2
311 2
312 4
313 4
314 -2
315 -4
316 2
317 2
318 2
319 4
320 2
321 2
322 4
323 -2
324 2
325 -2
326 2
327 -2
328 2
329 -2
330 2
331 -2
332 4
333 2
334 4
335 2
336 4
337 4
338 4
339 4
340 -2
341 2
342 2
343 2
344 4
345 -2
346 -2
347 2
348 2
349 2
350 4
351 2
352 2
353 -2
354 4
355 2
356 -2
357 2
358 -2
359 2
360 -2
361 2
362 2
363 -2
364 4
365 2
366 2
367 2
368 4
369 4
370 4
371 4
372 4
373 2
374 4
375 2
376 2
377 4
378 2
